NAME: berlin52.opt.tour 
TYPE: TOUR 
DIMENSION: 52 
TOUR_SECTION 
1 
24 
38 
33 
48 
26 
7 
22 
45 
9 
2 
35 
47 
8 
14 
34 
27 
37 
17 
0 
12 
46 
4 
3 
5 
15 
44 
40 
41 
32 
49 
6 
50 
20 
31 
13 
43 
42 
30 
11 
18 
29 
28 
25 
39 
36 
10 
23 
21 
51 
16 
19 
